Version identifier: 22.1.0.0 | 2022-03-09 | 1a383f8ce
CPXPARAM_Read_DataCheck                          1
CPXPARAM_Threads                                 1
CPXPARAM_TimeLimit                               3600
Tried aggregator 2 times.
MIP Presolve eliminated 700 rows and 94 columns.
MIP Presolve modified 3328 coefficients.
Aggregator did 19 substitutions.
Reduced MIP has 712 rows, 127 columns, and 3571 nonzeros.
Reduced MIP has 78 binaries, 0 generals, 0 SOSs, and 0 indicators.
Presolve time = 0.02 sec. (6.26 ticks)
Found incumbent of value 60.132288 after 0.03 sec. (8.93 ticks)
Probing fixed 3 vars, tightened 12 bounds.
Probing time = 0.00 sec. (1.56 ticks)
Tried aggregator 1 time.
Detecting symmetries...
MIP Presolve eliminated 14 rows and 3 columns.
MIP Presolve modified 112 coefficients.
Reduced MIP has 698 rows, 124 columns, and 3482 nonzeros.
Reduced MIP has 75 binaries, 0 generals, 0 SOSs, and 0 indicators.
Presolve time = 0.01 sec. (2.48 ticks)
Probing time = 0.00 sec. (1.46 ticks)
Clique table members: 477.
MIP emphasis: balance optimality and feasibility.
MIP search method: dynamic search.
Parallel mode: none, using 1 thread.
Root relaxation solution time = 0.00 sec. (1.86 ticks)

        Nodes                                         Cuts/
   Node  Left     Objective  IInf  Best Integer    Best Bound    ItCnt     Gap

*     0+    0                           60.1323       57.0183             5.18%
      0     0       57.0183    26       60.1323       57.0183       66    5.18%
*     0+    0                           58.6998       57.0183             2.86%
      0     0       57.0183    13       58.6998      Cuts: 12      111    2.86%
      0     0       57.0183     4       58.6998      Cuts: 61      135    2.86%
      0     0       57.0183     2       58.6998      Cuts: 15      141    2.86%
      0     0       57.0183     2       58.6998       Cuts: 6      145    2.86%
*     0+    0                           57.0183       57.0183             0.00%
      0     0        cutoff             57.0183       57.0183      145    0.00%
Elapsed time = 0.08 sec. (36.11 ticks, tree = 0.01 MB, solutions = 3)

GUB cover cuts applied:  9
Clique cuts applied:  23
Cover cuts applied:  10
Implied bound cuts applied:  2
Mixed integer rounding cuts applied:  15
Zero-half cuts applied:  12
Gomory fractional cuts applied:  11

Root node processing (before b&c):
  Real time             =    0.08 sec. (36.14 ticks)
Sequential b&c:
  Real time             =    0.00 sec. (0.00 ticks)
                          ------------
Total (root+branch&cut) =    0.08 sec. (36.14 ticks)
